c Standarized MaxSat Instance
c{
c "sha1sum": "06876714dfbd4b4552ddb421f8ae968ce1ec341f",
c "nvars": 40,
c "ncls": 1126,
c "nhards": 0,
c "nhard_len_stats":
c    { "min": 0, "max": 0, "ave": 0.00,
c      "stddev": 0.00 },
c "nsofts": 1126,
c "nsoft_len_stats":
c    { "min": 2, "max": 2, "ave": 2.00,
c      "stddev": 0.00 },
c "nsoft_wts": 1,
c "soft_wt_stats":
c    { "min": 1, "max": 1, "ave": 1.00,
c      "stddev": 0.00 }
c}
c------------------------------------------------------------
c File:  san400_0.7_2.clq
c
c SOURCE: Laura Sanchis (laura@cs.colgate.edu)
c
c REFERENCE: "Test Case Construction for the Vertex Cover Problem", 
c DIMACS Workshop on Computational Support for Discrete Mathematics, 
c March, 1992, with additional work in a to be published technical
c report.
c
c 400 vertices 55860 edges 30 max clique
c 400 23940 370 990 24750 15
p wcnf 40 1126 1127
1 1 2 0
1 -1 -2 0
1 1 4 0
1 -1 -4 0
1 1 6 0
1 -1 -6 0
1 1 7 0
1 -1 -7 0
1 1 11 0
1 -1 -11 0
1 1 12 0
1 -1 -12 0
1 1 13 0
1 -1 -13 0
1 1 17 0
1 -1 -17 0
1 1 18 0
1 -1 -18 0
1 1 19 0
1 -1 -19 0
1 1 20 0
1 -1 -20 0
1 1 21 0
1 -1 -21 0
1 1 22 0
1 -1 -22 0
1 1 24 0
1 -1 -24 0
1 1 25 0
1 -1 -25 0
1 1 26 0
1 -1 -26 0
1 1 27 0
1 -1 -27 0
1 1 28 0
1 -1 -28 0
1 1 29 0
1 -1 -29 0
1 1 31 0
1 -1 -31 0
1 1 32 0
1 -1 -32 0
1 1 33 0
1 -1 -33 0
1 1 34 0
1 -1 -34 0
1 1 35 0
1 -1 -35 0
1 1 36 0
1 -1 -36 0
1 1 37 0
1 -1 -37 0
1 1 38 0
1 -1 -38 0
1 1 39 0
1 -1 -39 0
1 1 40 0
1 -1 -40 0
1 2 3 0
1 -2 -3 0
1 2 4 0
1 -2 -4 0
1 2 6 0
1 -2 -6 0
1 2 7 0
1 -2 -7 0
1 2 8 0
1 -2 -8 0
1 2 10 0
1 -2 -10 0
1 2 11 0
1 -2 -11 0
1 2 13 0
1 -2 -13 0
1 2 16 0
1 -2 -16 0
1 2 17 0
1 -2 -17 0
1 2 18 0
1 -2 -18 0
1 2 19 0
1 -2 -19 0
1 2 20 0
1 -2 -20 0
1 2 21 0
1 -2 -21 0
1 2 22 0
1 -2 -22 0
1 2 23 0
1 -2 -23 0
1 2 24 0
1 -2 -24 0
1 2 25 0
1 -2 -25 0
1 2 26 0
1 -2 -26 0
1 2 27 0
1 -2 -27 0
1 2 28 0
1 -2 -28 0
1 2 29 0
1 -2 -29 0
1 2 30 0
1 -2 -30 0
1 2 31 0
1 -2 -31 0
1 2 32 0
1 -2 -32 0
1 2 33 0
1 -2 -33 0
1 2 34 0
1 -2 -34 0
1 2 35 0
1 -2 -35 0
1 2 36 0
1 -2 -36 0
1 2 38 0
1 -2 -38 0
1 2 39 0
1 -2 -39 0
1 2 40 0
1 -2 -40 0
1 3 4 0
1 -3 -4 0
1 3 5 0
1 -3 -5 0
1 3 6 0
1 -3 -6 0
1 3 8 0
1 -3 -8 0
1 3 9 0
1 -3 -9 0
1 3 10 0
1 -3 -10 0
1 3 12 0
1 -3 -12 0
1 3 13 0
1 -3 -13 0
1 3 14 0
1 -3 -14 0
1 3 15 0
1 -3 -15 0
1 3 16 0
1 -3 -16 0
1 3 19 0
1 -3 -19 0
1 3 20 0
1 -3 -20 0
1 3 21 0
1 -3 -21 0
1 3 23 0
1 -3 -23 0
1 3 24 0
1 -3 -24 0
1 3 27 0
1 -3 -27 0
1 3 28 0
1 -3 -28 0
1 3 29 0
1 -3 -29 0
1 3 30 0
1 -3 -30 0
1 3 31 0
1 -3 -31 0
1 3 32 0
1 -3 -32 0
1 3 33 0
1 -3 -33 0
1 3 37 0
1 -3 -37 0
1 3 38 0
1 -3 -38 0
1 3 39 0
1 -3 -39 0
1 3 40 0
1 -3 -40 0
1 4 5 0
1 -4 -5 0
1 4 6 0
1 -4 -6 0
1 4 7 0
1 -4 -7 0
1 4 8 0
1 -4 -8 0
1 4 11 0
1 -4 -11 0
1 4 12 0
1 -4 -12 0
1 4 13 0
1 -4 -13 0
1 4 14 0
1 -4 -14 0
1 4 15 0
1 -4 -15 0
1 4 17 0
1 -4 -17 0
1 4 18 0
1 -4 -18 0
1 4 19 0
1 -4 -19 0
1 4 20 0
1 -4 -20 0
1 4 21 0
1 -4 -21 0
1 4 22 0
1 -4 -22 0
1 4 24 0
1 -4 -24 0
1 4 25 0
1 -4 -25 0
1 4 26 0
1 -4 -26 0
1 4 27 0
1 -4 -27 0
1 4 28 0
1 -4 -28 0
1 4 33 0
1 -4 -33 0
1 4 34 0
1 -4 -34 0
1 4 35 0
1 -4 -35 0
1 4 36 0
1 -4 -36 0
1 4 38 0
1 -4 -38 0
1 4 39 0
1 -4 -39 0
1 4 40 0
1 -4 -40 0
1 5 6 0
1 -5 -6 0
1 5 8 0
1 -5 -8 0
1 5 9 0
1 -5 -9 0
1 5 12 0
1 -5 -12 0
1 5 13 0
1 -5 -13 0
1 5 14 0
1 -5 -14 0
1 5 15 0
1 -5 -15 0
1 5 16 0
1 -5 -16 0
1 5 20 0
1 -5 -20 0
1 5 21 0
1 -5 -21 0
1 5 23 0
1 -5 -23 0
1 5 24 0
1 -5 -24 0
1 5 27 0
1 -5 -27 0
1 5 28 0
1 -5 -28 0
1 5 29 0
1 -5 -29 0
1 5 30 0
1 -5 -30 0
1 5 31 0
1 -5 -31 0
1 5 35 0
1 -5 -35 0
1 5 36 0
1 -5 -36 0
1 5 37 0
1 -5 -37 0
1 5 39 0
1 -5 -39 0
1 5 40 0
1 -5 -40 0
1 6 7 0
1 -6 -7 0
1 6 10 0
1 -6 -10 0
1 6 11 0
1 -6 -11 0
1 6 13 0
1 -6 -13 0
1 6 14 0
1 -6 -14 0
1 6 15 0
1 -6 -15 0
1 6 16 0
1 -6 -16 0
1 6 17 0
1 -6 -17 0
1 6 18 0
1 -6 -18 0
1 6 19 0
1 -6 -19 0
1 6 20 0
1 -6 -20 0
1 6 21 0
1 -6 -21 0
1 6 22 0
1 -6 -22 0
1 6 24 0
1 -6 -24 0
1 6 25 0
1 -6 -25 0
1 6 26 0
1 -6 -26 0
1 6 28 0
1 -6 -28 0
1 6 29 0
1 -6 -29 0
1 6 32 0
1 -6 -32 0
1 6 33 0
1 -6 -33 0
1 6 34 0
1 -6 -34 0
1 6 35 0
1 -6 -35 0
1 6 36 0
1 -6 -36 0
1 6 38 0
1 -6 -38 0
1 6 39 0
1 -6 -39 0
1 6 40 0
1 -6 -40 0
1 7 10 0
1 -7 -10 0
1 7 11 0
1 -7 -11 0
1 7 12 0
1 -7 -12 0
1 7 13 0
1 -7 -13 0
1 7 15 0
1 -7 -15 0
1 7 16 0
1 -7 -16 0
1 7 17 0
1 -7 -17 0
1 7 18 0
1 -7 -18 0
1 7 19 0
1 -7 -19 0
1 7 20 0
1 -7 -20 0
1 7 21 0
1 -7 -21 0
1 7 22 0
1 -7 -22 0
1 7 24 0
1 -7 -24 0
1 7 25 0
1 -7 -25 0
1 7 26 0
1 -7 -26 0
1 7 30 0
1 -7 -30 0
1 7 31 0
1 -7 -31 0
1 7 32 0
1 -7 -32 0
1 7 33 0
1 -7 -33 0
1 7 34 0
1 -7 -34 0
1 7 35 0
1 -7 -35 0
1 7 36 0
1 -7 -36 0
1 7 38 0
1 -7 -38 0
1 7 39 0
1 -7 -39 0
1 7 40 0
1 -7 -40 0
1 8 9 0
1 -8 -9 0
1 8 10 0
1 -8 -10 0
1 8 11 0
1 -8 -11 0
1 8 12 0
1 -8 -12 0
1 8 14 0
1 -8 -14 0
1 8 16 0
1 -8 -16 0
1 8 18 0
1 -8 -18 0
1 8 21 0
1 -8 -21 0
1 8 23 0
1 -8 -23 0
1 8 24 0
1 -8 -24 0
1 8 27 0
1 -8 -27 0
1 8 28 0
1 -8 -28 0
1 8 29 0
1 -8 -29 0
1 8 30 0
1 -8 -30 0
1 8 31 0
1 -8 -31 0
1 8 32 0
1 -8 -32 0
1 8 33 0
1 -8 -33 0
1 8 36 0
1 -8 -36 0
1 8 37 0
1 -8 -37 0
1 8 38 0
1 -8 -38 0
1 8 39 0
1 -8 -39 0
1 8 40 0
1 -8 -40 0
1 9 10 0
1 -9 -10 0
1 9 11 0
1 -9 -11 0
1 9 12 0
1 -9 -12 0
1 9 14 0
1 -9 -14 0
1 9 15 0
1 -9 -15 0
1 9 16 0
1 -9 -16 0
1 9 18 0
1 -9 -18 0
1 9 19 0
1 -9 -19 0
1 9 22 0
1 -9 -22 0
1 9 23 0
1 -9 -23 0
1 9 24 0
1 -9 -24 0
1 9 25 0
1 -9 -25 0
1 9 27 0
1 -9 -27 0
1 9 28 0
1 -9 -28 0
1 9 29 0
1 -9 -29 0
1 9 31 0
1 -9 -31 0
1 9 32 0
1 -9 -32 0
1 9 33 0
1 -9 -33 0
1 9 35 0
1 -9 -35 0
1 9 37 0
1 -9 -37 0
1 9 38 0
1 -9 -38 0
1 9 39 0
1 -9 -39 0
1 10 12 0
1 -10 -12 0
1 10 14 0
1 -10 -14 0
1 10 15 0
1 -10 -15 0
1 10 16 0
1 -10 -16 0
1 10 17 0
1 -10 -17 0
1 10 19 0
1 -10 -19 0
1 10 21 0
1 -10 -21 0
1 10 22 0
1 -10 -22 0
1 10 23 0
1 -10 -23 0
1 10 25 0
1 -10 -25 0
1 10 26 0
1 -10 -26 0
1 10 27 0
1 -10 -27 0
1 10 28 0
1 -10 -28 0
1 10 29 0
1 -10 -29 0
1 10 30 0
1 -10 -30 0
1 10 31 0
1 -10 -31 0
1 10 33 0
1 -10 -33 0
1 10 36 0
1 -10 -36 0
1 10 37 0
1 -10 -37 0
1 10 39 0
1 -10 -39 0
1 11 13 0
1 -11 -13 0
1 11 15 0
1 -11 -15 0
1 11 16 0
1 -11 -16 0
1 11 17 0
1 -11 -17 0
1 11 18 0
1 -11 -18 0
1 11 19 0
1 -11 -19 0
1 11 20 0
1 -11 -20 0
1 11 21 0
1 -11 -21 0
1 11 22 0
1 -11 -22 0
1 11 23 0
1 -11 -23 0
1 11 24 0
1 -11 -24 0
1 11 25 0
1 -11 -25 0
1 11 26 0
1 -11 -26 0
1 11 28 0
1 -11 -28 0
1 11 29 0
1 -11 -29 0
1 11 31 0
1 -11 -31 0
1 11 32 0
1 -11 -32 0
1 11 33 0
1 -11 -33 0
1 11 34 0
1 -11 -34 0
1 11 35 0
1 -11 -35 0
1 11 36 0
1 -11 -36 0
1 11 37 0
1 -11 -37 0
1 11 38 0
1 -11 -38 0
1 11 40 0
1 -11 -40 0
1 12 14 0
1 -12 -14 0
1 12 15 0
1 -12 -15 0
1 12 16 0
1 -12 -16 0
1 12 19 0
1 -12 -19 0
1 12 22 0
1 -12 -22 0
1 12 23 0
1 -12 -23 0
1 12 24 0
1 -12 -24 0
1 12 25 0
1 -12 -25 0
1 12 27 0
1 -12 -27 0
1 12 28 0
1 -12 -28 0
1 12 29 0
1 -12 -29 0
1 12 30 0
1 -12 -30 0
1 12 31 0
1 -12 -31 0
1 12 33 0
1 -12 -33 0
1 12 37 0
1 -12 -37 0
1 12 39 0
1 -12 -39 0
1 12 40 0
1 -12 -40 0
1 13 16 0
1 -13 -16 0
1 13 18 0
1 -13 -18 0
1 13 19 0
1 -13 -19 0
1 13 21 0
1 -13 -21 0
1 13 22 0
1 -13 -22 0
1 13 23 0
1 -13 -23 0
1 13 24 0
1 -13 -24 0
1 13 25 0
1 -13 -25 0
1 13 26 0
1 -13 -26 0
1 13 27 0
1 -13 -27 0
1 13 28 0
1 -13 -28 0
1 13 29 0
1 -13 -29 0
1 13 30 0
1 -13 -30 0
1 13 32 0
1 -13 -32 0
1 13 34 0
1 -13 -34 0
1 13 35 0
1 -13 -35 0
1 13 36 0
1 -13 -36 0
1 13 37 0
1 -13 -37 0
1 13 38 0
1 -13 -38 0
1 13 39 0
1 -13 -39 0
1 13 40 0
1 -13 -40 0
1 14 15 0
1 -14 -15 0
1 14 16 0
1 -14 -16 0
1 14 17 0
1 -14 -17 0
1 14 19 0
1 -14 -19 0
1 14 21 0
1 -14 -21 0
1 14 23 0
1 -14 -23 0
1 14 24 0
1 -14 -24 0
1 14 27 0
1 -14 -27 0
1 14 28 0
1 -14 -28 0
1 14 29 0
1 -14 -29 0
1 14 30 0
1 -14 -30 0
1 14 31 0
1 -14 -31 0
1 14 33 0
1 -14 -33 0
1 14 37 0
1 -14 -37 0
1 14 38 0
1 -14 -38 0
1 14 39 0
1 -14 -39 0
1 14 40 0
1 -14 -40 0
1 15 16 0
1 -15 -16 0
1 15 17 0
1 -15 -17 0
1 15 18 0
1 -15 -18 0
1 15 19 0
1 -15 -19 0
1 15 21 0
1 -15 -21 0
1 15 22 0
1 -15 -22 0
1 15 23 0
1 -15 -23 0
1 15 27 0
1 -15 -27 0
1 15 28 0
1 -15 -28 0
1 15 29 0
1 -15 -29 0
1 15 30 0
1 -15 -30 0
1 15 31 0
1 -15 -31 0
1 15 32 0
1 -15 -32 0
1 15 33 0
1 -15 -33 0
1 15 36 0
1 -15 -36 0
1 15 37 0
1 -15 -37 0
1 15 38 0
1 -15 -38 0
1 15 39 0
1 -15 -39 0
1 16 19 0
1 -16 -19 0
1 16 20 0
1 -16 -20 0
1 16 22 0
1 -16 -22 0
1 16 23 0
1 -16 -23 0
1 16 24 0
1 -16 -24 0
1 16 26 0
1 -16 -26 0
1 16 27 0
1 -16 -27 0
1 16 28 0
1 -16 -28 0
1 16 29 0
1 -16 -29 0
1 16 30 0
1 -16 -30 0
1 16 31 0
1 -16 -31 0
1 16 34 0
1 -16 -34 0
1 16 37 0
1 -16 -37 0
1 16 38 0
1 -16 -38 0
1 16 39 0
1 -16 -39 0
1 17 18 0
1 -17 -18 0
1 17 19 0
1 -17 -19 0
1 17 21 0
1 -17 -21 0
1 17 22 0
1 -17 -22 0
1 17 24 0
1 -17 -24 0
1 17 25 0
1 -17 -25 0
1 17 26 0
1 -17 -26 0
1 17 28 0
1 -17 -28 0
1 17 30 0
1 -17 -30 0
1 17 31 0
1 -17 -31 0
1 17 32 0
1 -17 -32 0
1 17 34 0
1 -17 -34 0
1 17 35 0
1 -17 -35 0
1 17 36 0
1 -17 -36 0
1 17 37 0
1 -17 -37 0
1 17 38 0
1 -17 -38 0
1 17 39 0
1 -17 -39 0
1 17 40 0
1 -17 -40 0
1 18 19 0
1 -18 -19 0
1 18 20 0
1 -18 -20 0
1 18 21 0
1 -18 -21 0
1 18 22 0
1 -18 -22 0
1 18 24 0
1 -18 -24 0
1 18 25 0
1 -18 -25 0
1 18 26 0
1 -18 -26 0
1 18 27 0
1 -18 -27 0
1 18 28 0
1 -18 -28 0
1 18 29 0
1 -18 -29 0
1 18 30 0
1 -18 -30 0
1 18 31 0
1 -18 -31 0
1 18 32 0
1 -18 -32 0
1 18 33 0
1 -18 -33 0
1 18 34 0
1 -18 -34 0
1 18 35 0
1 -18 -35 0
1 18 36 0
1 -18 -36 0
1 18 38 0
1 -18 -38 0
1 18 40 0
1 -18 -40 0
1 19 20 0
1 -19 -20 0
1 19 21 0
1 -19 -21 0
1 19 22 0
1 -19 -22 0
1 19 24 0
1 -19 -24 0
1 19 25 0
1 -19 -25 0
1 19 26 0
1 -19 -26 0
1 19 28 0
1 -19 -28 0
1 19 29 0
1 -19 -29 0
1 19 31 0
1 -19 -31 0
1 19 32 0
1 -19 -32 0
1 19 33 0
1 -19 -33 0
1 19 36 0
1 -19 -36 0
1 19 38 0
1 -19 -38 0
1 19 39 0
1 -19 -39 0
1 19 40 0
1 -19 -40 0
1 20 21 0
1 -20 -21 0
1 20 22 0
1 -20 -22 0
1 20 23 0
1 -20 -23 0
1 20 24 0
1 -20 -24 0
1 20 25 0
1 -20 -25 0
1 20 26 0
1 -20 -26 0
1 20 30 0
1 -20 -30 0
1 20 32 0
1 -20 -32 0
1 20 34 0
1 -20 -34 0
1 20 35 0
1 -20 -35 0
1 20 36 0
1 -20 -36 0
1 20 37 0
1 -20 -37 0
1 20 38 0
1 -20 -38 0
1 20 40 0
1 -20 -40 0
1 21 22 0
1 -21 -22 0
1 21 24 0
1 -21 -24 0
1 21 25 0
1 -21 -25 0
1 21 26 0
1 -21 -26 0
1 21 27 0
1 -21 -27 0
1 21 29 0
1 -21 -29 0
1 21 30 0
1 -21 -30 0
1 21 31 0
1 -21 -31 0
1 21 32 0
1 -21 -32 0
1 21 33 0
1 -21 -33 0
1 21 34 0
1 -21 -34 0
1 21 35 0
1 -21 -35 0
1 21 36 0
1 -21 -36 0
1 21 38 0
1 -21 -38 0
1 22 24 0
1 -22 -24 0
1 22 25 0
1 -22 -25 0
1 22 27 0
1 -22 -27 0
1 22 29 0
1 -22 -29 0
1 22 31 0
1 -22 -31 0
1 22 32 0
1 -22 -32 0
1 22 33 0
1 -22 -33 0
1 22 34 0
1 -22 -34 0
1 22 35 0
1 -22 -35 0
1 22 36 0
1 -22 -36 0
1 22 38 0
1 -22 -38 0
1 22 39 0
1 -22 -39 0
1 22 40 0
1 -22 -40 0
1 23 24 0
1 -23 -24 0
1 23 28 0
1 -23 -28 0
1 23 29 0
1 -23 -29 0
1 23 30 0
1 -23 -30 0
1 23 31 0
1 -23 -31 0
1 23 33 0
1 -23 -33 0
1 23 37 0
1 -23 -37 0
1 23 38 0
1 -23 -38 0
1 23 39 0
1 -23 -39 0
1 24 25 0
1 -24 -25 0
1 24 26 0
1 -24 -26 0
1 24 30 0
1 -24 -30 0
1 24 32 0
1 -24 -32 0
1 24 33 0
1 -24 -33 0
1 24 34 0
1 -24 -34 0
1 24 35 0
1 -24 -35 0
1 24 36 0
1 -24 -36 0
1 24 38 0
1 -24 -38 0
1 24 39 0
1 -24 -39 0
1 24 40 0
1 -24 -40 0
1 25 26 0
1 -25 -26 0
1 25 29 0
1 -25 -29 0
1 25 32 0
1 -25 -32 0
1 25 33 0
1 -25 -33 0
1 25 34 0
1 -25 -34 0
1 25 35 0
1 -25 -35 0
1 25 37 0
1 -25 -37 0
1 25 38 0
1 -25 -38 0
1 25 39 0
1 -25 -39 0
1 25 40 0
1 -25 -40 0
1 26 28 0
1 -26 -28 0
1 26 29 0
1 -26 -29 0
1 26 32 0
1 -26 -32 0
1 26 33 0
1 -26 -33 0
1 26 34 0
1 -26 -34 0
1 26 35 0
1 -26 -35 0
1 26 36 0
1 -26 -36 0
1 26 38 0
1 -26 -38 0
1 26 39 0
1 -26 -39 0
1 26 40 0
1 -26 -40 0
1 27 28 0
1 -27 -28 0
1 27 29 0
1 -27 -29 0
1 27 30 0
1 -27 -30 0
1 27 31 0
1 -27 -31 0
1 27 32 0
1 -27 -32 0
1 27 36 0
1 -27 -36 0
1 27 37 0
1 -27 -37 0
1 27 38 0
1 -27 -38 0
1 27 39 0
1 -27 -39 0
1 27 40 0
1 -27 -40 0
1 28 29 0
1 -28 -29 0
1 28 30 0
1 -28 -30 0
1 28 32 0
1 -28 -32 0
1 28 33 0
1 -28 -33 0
1 28 34 0
1 -28 -34 0
1 28 36 0
1 -28 -36 0
1 28 37 0
1 -28 -37 0
1 28 38 0
1 -28 -38 0
1 28 39 0
1 -28 -39 0
1 28 40 0
1 -28 -40 0
1 29 30 0
1 -29 -30 0
1 29 31 0
1 -29 -31 0
1 29 33 0
1 -29 -33 0
1 29 37 0
1 -29 -37 0
1 29 39 0
1 -29 -39 0
1 29 40 0
1 -29 -40 0
1 30 31 0
1 -30 -31 0
1 30 32 0
1 -30 -32 0
1 30 33 0
1 -30 -33 0
1 30 36 0
1 -30 -36 0
1 30 37 0
1 -30 -37 0
1 30 38 0
1 -30 -38 0
1 30 39 0
1 -30 -39 0
1 31 34 0
1 -31 -34 0
1 31 35 0
1 -31 -35 0
1 31 36 0
1 -31 -36 0
1 31 37 0
1 -31 -37 0
1 31 39 0
1 -31 -39 0
1 31 40 0
1 -31 -40 0
1 32 33 0
1 -32 -33 0
1 32 34 0
1 -32 -34 0
1 32 35 0
1 -32 -35 0
1 32 36 0
1 -32 -36 0
1 32 38 0
1 -32 -38 0
1 32 39 0
1 -32 -39 0
1 32 40 0
1 -32 -40 0
1 33 34 0
1 -33 -34 0
1 33 35 0
1 -33 -35 0
1 33 36 0
1 -33 -36 0
1 33 38 0
1 -33 -38 0
1 33 39 0
1 -33 -39 0
1 33 40 0
1 -33 -40 0
1 34 36 0
1 -34 -36 0
1 34 38 0
1 -34 -38 0
1 34 39 0
1 -34 -39 0
1 34 40 0
1 -34 -40 0
1 35 36 0
1 -35 -36 0
1 35 37 0
1 -35 -37 0
1 35 38 0
1 -35 -38 0
1 35 39 0
1 -35 -39 0
1 35 40 0
1 -35 -40 0
1 36 37 0
1 -36 -37 0
1 36 38 0
1 -36 -38 0
1 36 40 0
1 -36 -40 0
1 37 38 0
1 -37 -38 0
1 38 40 0
1 -38 -40 0
